TCS_Benchmarks/redos_fix/snort3_output_distinct_2401_2400_0_0.txt
([^>]*)([^>]*)
([^>]*)([pP][oO][sS][iI][tT][iI][oO][nN])([^>]*)